# Test unitaire de petite taille, solution optimale : 8

3 3
111
101
111
1 3 20
