# Fichier généré avec generate.jl, avec les paramètres 5 8 0.6 1 20, Solution optimale 32

7 8
1110000
1011000
1001100
1011100
1111100
1111110
1101110
0000000
5 2 17
