# Fichier généré avec generate.jl, avec les paramètres 3 6 0.5 1 10 : Solution optimale : 18

3 6
111
101
111
011
011
110
5 3 12
