# Test avec une baterie limite. Solution optimale : 24

5 5
11111
10011
10111
11100
1 1 12
