# Test avec plusieurs passages au même endroit. Solution optimale : 16

4 3
1111
1001
1101
1 2 10
