# Il faut tout visiter mais il n'y a pas assez de batterie pour le faire en une fois. Solution optimale : 20

4 4
1111
1111
1111
1111
1 4 14
