# Fichier généré avec generate.jl, avec les paramètres 6 3 0.5 1 20, Solution optimale 18

6 3
011100
100110
111110
1 4 18
